LAMMPS (1 Feb 2012-ICMS)
  using 1 OpenMP thread(s) per MPI task
units		real	
atom_style	full
dimension       3
boundary        p p p

read_data	data.rigid-tip4p
  orthogonal box = (-4.72 -4.72 -4.72) to (51.92 61.36 61.36)
  1 by 1 by 1 MPI processor grid
  31752 atoms
  31752 velocities
  0 = max # of 1-2 neighbors
  0 = max # of 1-3 neighbors
  0 = max # of 1-4 neighbors
  1 = max # of special neighbors

pair_style	lj/cut/coul/long 10.0 
kspace_style	pppm 1.0e-4

pair_coeff	1 1 0.2106 3.166
pair_coeff	* 2 0.0000 0.0000
pair_coeff	* 3 0.0000 0.0000	 

fix             1 all rigid/nvt molecule temp 300.0 300.0 100.0
7938 rigid bodies with 31752 atoms

neighbor        2.0 bin  
neigh_modify    exclude type 1 2 
neigh_modify    exclude type 1 3 
neigh_modify    exclude molecule all
neigh_modify    delay 4 every 2 one 2048 page 204800

timestep	0.5

thermo_style    custom step temp epair evdwl ecoul press
thermo		10
run		100
PPPM initialization ...
  G vector = 0.269243
  grid = 32 36 36
  stencil order = 5
  RMS precision = 6.53414e-05
  using single precision FFTs
  brick FFT buffer size/proc = 72111 41472 22188
Memory usage per processor = 75.4817 Mbytes
Step Temp E_pair E_vdwl E_coul Press 
       0    297.44292   -713096.06    5414.0563   -69171.292     2044.438 
      10    298.06529   -713124.33    5422.4465   -69211.734    545.23069 
      20    298.48841   -713141.53    5430.9882   -69242.334    540.04942 
      30    297.98075   -713113.49    5441.1685   -69230.086    554.63887 
      40    297.38687   -713080.64    5451.8108   -69212.552    573.13603 
      50    296.96659   -713053.96    5461.9518   -69195.973    596.52241 
      60    296.62041   -713029.78    5472.7812   -69176.834    627.65202 
      70    297.40253   -713058.94    5484.5294   -69209.494    639.38115 
      80    299.23079   -713136.65    5496.3045   -69294.461    622.95588 
      90    300.31354   -713178.27    5504.3705   -69345.322     615.2812 
     100    300.15064   -713161.34    5501.8453   -69328.604    619.77204 
Loop time of 26.5877 on 1 procs (1 MPI x 1 OpenMP) for 100 steps with 31752 atoms
Performance: 0.162 ns/day  147.709 hours/ns  3.761 timesteps/s

Section |  min time  |  avg time  |  max time  |%total |  #Thr
--------------------------------------------------------------
Pair    | 21.24      | 21.24      | 21.24      | 79.90 |  1.0x
Bond    | 7.701e-05  | 7.701e-05  | 7.701e-05  |  0.00 |  1.0x
Kspace  | 2.569      | 2.569      | 2.569      |  9.66 |  1.0x
Neigh   | 1.887      | 1.887      | 1.887      |  7.10 |  1.0x
Comm    | 0.05898    | 0.05898    | 0.05898    |  0.22 |  1.0x
Output  | 0.001465   | 0.001465   | 0.001465   |  0.01 |  1.0x
Modify  | 0.7804     | 0.7804     | 0.7804     |  2.94 |  1.0x
Other   |            | 0.04726    |            |  0.18 |

FFT time (% of Kspce) = 0.523081 (20.3588)
FFT Gflps 3d (1d only) = 1.68602 2.53312

Nlocal:    31752 ave 31752 max 31752 min
Histogram: 1 0 0 0 0 0 0 0 0 0
Nghost:    52278 ave 52278 max 52278 min
Histogram: 1 0 0 0 0 0 0 0 0 0
Neighs:    9.18023e+06 ave 9.18023e+06 max 9.18023e+06 min
Histogram: 1 0 0 0 0 0 0 0 0 0

Total # of neighbors = 9180234
Ave neighs/atom = 289.123
Ave special neighs/atom = 0
Neighbor list builds = 2
Dangerous builds = 0

